n = 4;
rank =    [8,5,5,4];
ability = [0,1,0,1];
m = 8; 
beauty =  [1,5,3,8,8,9,9,3];
speed =   [6,4,5,4,4,2,1,3];

enjoy = [| 3,4,5,7,3,5,3,2
         | 1,6,3,4,8,4,2,3
         | 2,3,4,3,3,6,3,1
         | 9,6,2,3,4,3,2,1
         |];
